WARNING: for repeatability, setting FPU to use double precision
============================[ Problem Statistics ]=============================
|                                                                             |
|  Number of variables:           100                                         |
|  Number of clauses:             449                                         |
|  Parse time:                   0.00 s                                       |
|  Eliminated clauses:           0.00 Mb                                      |
|  Simplification time:          0.00 s                                       |
|                                                                             |
============================[ Search Statistics ]==============================
| Conflicts |          ORIGINAL         |          LEARNT          | Progress |
|           |    Vars  Clauses Literals |    Limit  Clauses Lit/Cl |          |
===============================================================================
|       100 |      96      438     1333 |      160      100      6 |  0.010 % |
|       250 |      96      438     1333 |      176      167      6 |  0.011 % |
===============================================================================
restarts              : 3
conflicts             : 376            (95046 /sec)
decisions             : 454            (0.00 % random) (114762 /sec)
propagations          : 8208           (2074823 /sec)
conflict literals     : 2104           (23.16 % deleted)
Memory used           : 13.00 MB
CPU time              : 0.003956 s

SATISFIABLE
